InboundTrucks  = 8;
OutboundTrucks = 5;
InboundDoors   = 4;
OutboundDoors  = 4;
ReleaseTime    = [1,3,0,1,0,5,5,2];
UnloadTime     = [27,32,26,32,37,34,21,40];
LoadTime       = [20,19,18,22,15];
TransferTime   = [| 25,46,26,13,23 | 19,32,30,0,43 | 46,0,0,31,35 | 44,0,38,0,40 | 13,38,49,0,44 | 22,30,44,12,0 | 0,0,46,40,43 | 17,0,19,29,40 |];
